100
300
40
0 0
12 37
81 44
29 86
22 71
6 90
13 23
14 49
74 1
6 73
43 18
93 62
90 53
4 66
63 95
8 91
13 84
13 15
77 15
26 18
73 15
39 59
42 71
59 49
60 96
40 95
2 71
61 63
66 33
3 62
88 3
70 44
59 34
8 62
90 70
53 79
63 73
7 37
50 31
31 47
40 50
0 0
30
30
70
60
30
70
40
30
70
60
70
30
40
60
40
70
60
40
30
70
30
30
70
60
30
70
40
30
70
60
70
30
40
60
40
70
60
40
30
70
